p cnf 219 234
c ind 104 105 106 107 108 109 110 0
c ind 111 112 113 114 115 116 117 118 119 120 0
c ind 121 122 123 124 125 126 127 128 129 130 0
c ind 131 132 133 134 135 136 137 138 139 140 0
c ind 141 142 143 144 145 146 147 148 149 150 0
c ind 151 152 153 154 155 156 157 158 159 160 0
c ind 161 162 163 164 165 166 167 168 169 170 0
c ind 171 172 173 174 175 176 177 178 179 180 0
c ind 181 182 183 184 185 186 187 188 189 190 0
c ind 191 192 193 194 195 196 197 198 199 200 0
c ind 201 202 203 204 205 206 207 208 209 210 0
c ind 211 212 213 214 215 216 217 218 219 0
55 0
-25 0
-1 -104 13 0
1 -104 -13 0
-1 -105 19 0
1 -105 -19 0
-2 -106 3 0
2 -106 -3 0
-2 -107 4 0
2 -107 -4 0
-2 -108 5 0
2 -108 -5 0
-2 -109 10 0
2 -109 -10 0
-2 -110 24 0
2 -110 -24 0
-2 -111 88 0
2 -111 -88 0
-3 -112 4 0
3 -112 -4 0
-3 -113 5 0
3 -113 -5 0
-3 -114 21 0
3 -114 -21 0
-3 -115 25 0
3 -115 -25 0
-3 -116 34 0
3 -116 -34 0
-3 -117 37 0
3 -117 -37 0
-3 -118 91 0
3 -118 -91 0
-4 -119 9 0
4 -119 -9 0
-4 -120 11 0
4 -120 -11 0
-4 -121 22 0
4 -121 -22 0
-4 -122 39 0
4 -122 -39 0
-4 -123 47 0
4 -123 -47 0
-4 -124 86 0
4 -124 -86 0
-4 -125 91 0
4 -125 -91 0
-4 -126 92 0
4 -126 -92 0
-5 -127 30 0
5 -127 -30 0
-5 -128 31 0
5 -128 -31 0
-5 -129 87 0
5 -129 -87 0
-5 -130 88 0
5 -130 -88 0
-6 -131 49 0
6 -131 -49 0
-7 -132 8 0
7 -132 -8 0
-7 -133 16 0
7 -133 -16 0
-7 -134 22 0
7 -134 -22 0
-7 -135 47 0
7 -135 -47 0
-8 -136 65 0
8 -136 -65 0
-10 -137 11 0
10 -137 -11 0
-10 -138 24 0
10 -138 -24 0
-11 -139 15 0
11 -139 -15 0
-11 -140 27 0
11 -140 -27 0
-11 -141 87 0
11 -141 -87 0
-12 -142 23 0
12 -142 -23 0
-13 -143 48 0
13 -143 -48 0
-14 -144 25 0
14 -144 -25 0
-14 -145 26 0
14 -145 -26 0
-15 -146 18 0
15 -146 -18 0
-15 -147 19 0
15 -147 -19 0
-15 -148 28 0
15 -148 -28 0
-17 -149 47 0
17 -149 -47 0
-18 -150 84 0
18 -150 -84 0
-20 -151 23 0
20 -151 -23 0
-20 -152 27 0
20 -152 -27 0
-21 -153 23 0
21 -153 -23 0
-21 -154 93 0
21 -154 -93 0
-24 -155 31 0
24 -155 -31 0
-24 -156 33 0
24 -156 -33 0
-25 -157 41 0
25 -157 -41 0
-26 -158 27 0
26 -158 -27 0
-29 -159 30 0
29 -159 -30 0
-31 -160 32 0
31 -160 -32 0
-33 -161 34 0
33 -161 -34 0
-33 -162 36 0
33 -162 -36 0
-35 -163 36 0
35 -163 -36 0
-37 -164 38 0
37 -164 -38 0
-37 -165 39 0
37 -165 -39 0
-39 -166 40 0
39 -166 -40 0
-41 -167 43 0
41 -167 -43 0
-42 -168 43 0
42 -168 -43 0
-43 -169 44 0
43 -169 -44 0
-44 -170 46 0
44 -170 -46 0
-44 -171 95 0
44 -171 -95 0
-44 -172 96 0
44 -172 -96 0
-45 -173 46 0
45 -173 -46 0
-46 -174 53 0
46 -174 -53 0
-48 -175 49 0
48 -175 -49 0
-50 -176 51 0
50 -176 -51 0
-50 -177 52 0
50 -177 -52 0
-50 -178 94 0
50 -178 -94 0
-52 -179 53 0
52 -179 -53 0
-54 -180 60 0
54 -180 -60 0
-55 -181 56 0
55 -181 -56 0
-55 -182 64 0
55 -182 -64 0
-55 -183 66 0
55 -183 -66 0
-56 -184 57 0
56 -184 -57 0
-56 -185 89 0
56 -185 -89 0
-57 -186 58 0
57 -186 -58 0
-57 -187 68 0
57 -187 -68 0
-58 -188 59 0
58 -188 -59 0
-58 -189 77 0
58 -189 -77 0
-59 -190 73 0
59 -190 -73 0
-60 -191 73 0
60 -191 -73 0
-60 -192 90 0
60 -192 -90 0
-61 -193 75 0
61 -193 -75 0
-61 -194 77 0
61 -194 -77 0
-62 -195 78 0
62 -195 -78 0
-62 -196 80 0
62 -196 -80 0
-62 -197 102 0
62 -197 -102 0
-63 -198 102 0
63 -198 -102 0
-64 -199 82 0
64 -199 -82 0
-64 -200 103 0
64 -200 -103 0
-65 -201 66 0
65 -201 -66 0
-66 -202 71 0
66 -202 -71 0
-66 -203 72 0
66 -203 -72 0
-67 -204 68 0
67 -204 -68 0
-67 -205 74 0
67 -205 -74 0
-69 -206 70 0
69 -206 -70 0
-70 -207 71 0
70 -207 -71 0
-76 -208 84 0
76 -208 -84 0
-78 -209 79 0
78 -209 -79 0
-78 -210 101 0
78 -210 -101 0
-81 -211 103 0
81 -211 -103 0
-83 -212 101 0
83 -212 -101 0
-84 -213 101 0
84 -213 -101 0
-85 -214 86 0
85 -214 -86 0
-93 -215 99 0
93 -215 -99 0
-96 -216 97 0
96 -216 -97 0
-96 -217 98 0
96 -217 -98 0
-99 -218 100 0
99 -218 -100 0
-102 -219 103 0
102 -219 -103 0
w 104 0.5
w 105 0.5
w 106 0.5
w 107 0.5
w 108 0.5
w 109 0.5
w 110 0.5
w 111 0.5
w 112 0.4375
w 113 0.4375
w 114 0.4375
w 115 0.5
w 116 0.5
w 117 0.5
w 118 0.5
w 119 0.5
w 120 0.5
w 121 0.5
w 122 0.5
w 123 0.5
w 124 0.5
w 125 0.5
w 126 0.5
w 127 0.5
w 128 0.5
w 129 0.5
w 130 0.5625
w 131 0.5625
w 132 0.5
w 133 0.5
w 134 0.5
w 135 0.5
w 136 0.5
w 137 0.5
w 138 0.5
w 139 0.5
w 140 0.5
w 141 0.5625
w 142 0.5
w 143 0.4375
w 144 0.5625
w 145 0.5
w 146 0.4375
w 147 0.5
w 148 0.5
w 149 0.5
w 150 0.5
w 151 0.5
w 152 0.5
w 153 0.4375
w 154 0.5
w 155 0.5625
w 156 0.5
w 157 0.5
w 158 0.5
w 159 0.5
w 160 0.5
w 161 0.5
w 162 0.5
w 163 0.5
w 164 0.4375
w 165 0.5
w 166 0.5
w 167 0.5
w 168 0.5
w 169 0.5
w 170 0.5
w 171 0.5
w 172 0.5
w 173 0.5
w 174 0.5
w 175 0.5
w 176 0.5
w 177 0.5
w 178 0.5
w 179 0.4375
w 180 0.4375
w 181 0.5625
w 182 0.5
w 183 0.4375
w 184 0.5
w 185 0.4375
w 186 0.5
w 187 0.5
w 188 0.5
w 189 0.5
w 190 0.5
w 191 0.5
w 192 0.5
w 193 0.4375
w 194 0.5
w 195 0.5
w 196 0.5625
w 197 0.5625
w 198 0.5
w 199 0.5
w 200 0.5
w 201 0.5625
w 202 0.5
w 203 0.5
w 204 0.5
w 205 0.5
w 206 0.5
w 207 0.5
w 208 0.5
w 209 0.5
w 210 0.5
w 211 0.5
w 212 0.5
w 213 0.5
w 214 0.5
w 215 0.4375
w 216 0.4375
w 217 0.5625
w 218 0.5625
w 219 0.4375
